33D32945 STP File, STP Format Version 1.0

SECTION Comment
Name    "i080-123"
Creator "Cees Duin"
Remark  "Incidence graph"
END

SECTION Graph
Nodes 80
Edges 3160
E 1 2 293
E 1 3 297
E 1 4 300
E 1 5 301
E 1 6 308
E 1 7 297
E 1 8 304
E 1 9 206
E 1 10 199
E 1 11 200
E 1 12 193
E 1 13 192
E 1 14 197
E 1 15 200
E 1 16 206
E 1 17 192
E 1 18 197
E 1 19 200
E 1 20 196
E 1 21 199
E 1 22 198
E 1 23 200
E 1 24 198
E 1 25 202
E 1 26 193
E 1 27 204
E 1 28 199
E 1 29 197
E 1 30 191
E 1 31 207
E 1 32 207
E 1 33 199
E 1 34 199
E 1 35 195
E 1 36 196
E 1 37 187
E 1 38 199
E 1 39 205
E 1 40 200
E 1 41 199
E 1 42 205
E 1 43 206
E 1 44 199
E 1 45 205
E 1 46 203
E 1 47 202
E 1 48 205
E 1 49 192
E 1 50 205
E 1 51 195
E 1 52 201
E 1 53 196
E 1 54 207
E 1 55 196
E 1 56 199
E 1 57 197
E 1 58 200
E 1 59 202
E 1 60 190
E 1 61 202
E 1 62 198
E 1 63 201
E 1 64 190
E 1 65 197
E 1 66 198
E 1 67 202
E 1 68 200
E 1 69 203
E 1 70 197
E 1 71 202
E 1 72 191
E 1 73 204
E 1 74 206
E 1 75 202
E 1 76 207
E 1 77 201
E 1 78 205
E 1 79 200
E 1 80 192
E 2 3 302
E 2 4 295
E 2 5 300
E 2 6 303
E 2 7 297
E 2 8 299
E 2 9 204
E 2 10 206
E 2 11 196
E 2 12 198
E 2 13 202
E 2 14 212
E 2 15 199
E 2 16 206
E 2 17 201
E 2 18 201
E 2 19 197
E 2 20 200
E 2 21 198
E 2 22 195
E 2 23 198
E 2 24 199
E 2 25 192
E 2 26 196
E 2 27 204
E 2 28 193
E 2 29 197
E 2 30 199
E 2 31 205
E 2 32 197
E 2 33 202
E 2 34 199
E 2 35 202
E 2 36 204
E 2 37 205
E 2 38 199
E 2 39 201
E 2 40 201
E 2 41 198
E 2 42 209
E 2 43 205
E 2 44 206
E 2 45 200
E 2 46 196
E 2 47 192
E 2 48 197
E 2 49 205
E 2 50 195
E 2 51 193
E 2 52 194
E 2 53 196
E 2 54 199
E 2 55 198
E 2 56 203
E 2 57 200
E 2 58 197
E 2 59 196
E 2 60 209
E 2 61 206
E 2 62 203
E 2 63 204
E 2 64 206
E 2 65 198
E 2 66 191
E 2 67 205
E 2 68 203
E 2 69 199
E 2 70 200
E 2 71 196
E 2 72 200
E 2 73 197
E 2 74 201
E 2 75 198
E 2 76 193
E 2 77 193
E 2 78 199
E 2 79 196
E 2 80 202
E 3 4 296
E 3 5 309
E 3 6 294
E 3 7 306
E 3 8 294
E 3 9 196
E 3 10 202
E 3 11 202
E 3 12 204
E 3 13 195
E 3 14 194
E 3 15 201
E 3 16 196
E 3 17 205
E 3 18 199
E 3 19 204
E 3 20 198
E 3 21 198
E 3 22 200
E 3 23 194
E 3 24 208
E 3 25 199
E 3 26 199
E 3 27 196
E 3 28 200
E 3 29 199
E 3 30 202
E 3 31 193
E 3 32 198
E 3 33 207
E 3 34 202
E 3 35 195
E 3 36 193
E 3 37 197
E 3 38 196
E 3 39 197
E 3 40 188
E 3 41 197
E 3 42 198
E 3 43 198
E 3 44 196
E 3 45 204
E 3 46 201
E 3 47 203
E 3 48 191
E 3 49 199
E 3 50 208
E 3 51 205
E 3 52 191
E 3 53 199
E 3 54 200
E 3 55 200
E 3 56 187
E 3 57 200
E 3 58 205
E 3 59 204
E 3 60 199
E 3 61 202
E 3 62 189
E 3 63 205
E 3 64 204
E 3 65 207
E 3 66 202
E 3 67 193
E 3 68 199
E 3 69 211
E 3 70 199
E 3 71 198
E 3 72 201
E 3 73 204
E 3 74 201
E 3 75 195
E 3 76 209
E 3 77 199
E 3 78 199
E 3 79 203
E 3 80 204
E 4 5 299
E 4 6 304
E 4 7 300
E 4 8 296
E 4 9 201
E 4 10 195
E 4 11 205
E 4 12 201
E 4 13 194
E 4 14 203
E 4 15 199
E 4 16 198
E 4 17 195
E 4 18 200
E 4 19 203
E 4 20 196
E 4 21 205
E 4 22 203
E 4 23 196
E 4 24 200
E 4 25 207
E 4 26 202
E 4 27 201
E 4 28 211
E 4 29 199
E 4 30 200
E 4 31 202
E 4 32 209
E 4 33 197
E 4 34 191
E 4 35 203
E 4 36 200
E 4 37 195
E 4 38 195
E 4 39 203
E 4 40 201
E 4 41 200
E 4 42 196
E 4 43 205
E 4 44 210
E 4 45 197
E 4 46 203
E 4 47 195
E 4 48 199
E 4 49 191
E 4 50 197
E 4 51 197
E 4 52 197
E 4 53 205
E 4 54 198
E 4 55 208
E 4 56 207
E 4 57 198
E 4 58 201
E 4 59 196
E 4 60 206
E 4 61 202
E 4 62 197
E 4 63 191
E 4 64 204
E 4 65 207
E 4 66 199
E 4 67 201
E 4 68 195
E 4 69 194
E 4 70 192
E 4 71 205
E 4 72 202
E 4 73 201
E 4 74 195
E 4 75 194
E 4 76 188
E 4 77 204
E 4 78 200
E 4 79 203
E 4 80 201
E 5 6 301
E 5 7 296
E 5 8 295
E 5 9 201
E 5 10 197
E 5 11 197
E 5 12 194
E 5 13 199
E 5 14 195
E 5 15 199
E 5 16 201
E 5 17 196
E 5 18 199
E 5 19 203
E 5 20 192
E 5 21 205
E 5 22 201
E 5 23 206
E 5 24 199
E 5 25 202
E 5 26 207
E 5 27 200
E 5 28 203
E 5 29 204
E 5 30 199
E 5 31 198
E 5 32 197
E 5 33 201
E 5 34 206
E 5 35 202
E 5 36 192
E 5 37 208
E 5 38 203
E 5 39 200
E 5 40 201
E 5 41 205
E 5 42 197
E 5 43 198
E 5 44 206
E 5 45 199
E 5 46 199
E 5 47 196
E 5 48 208
E 5 49 206
E 5 50 195
E 5 51 199
E 5 52 203
E 5 53 194
E 5 54 204
E 5 55 202
E 5 56 203
E 5 57 205
E 5 58 200
E 5 59 199
E 5 60 200
E 5 61 204
E 5 62 198
E 5 63 201
E 5 64 197
E 5 65 199
E 5 66 202
E 5 67 197
E 5 68 198
E 5 69 200
E 5 70 197
E 5 71 207
E 5 72 200
E 5 73 188
E 5 74 200
E 5 75 202
E 5 76 209
E 5 77 203
E 5 78 196
E 5 79 201
E 5 80 199
E 6 7 295
E 6 8 293
E 6 9 200
E 6 10 209
E 6 11 199
E 6 12 195
E 6 13 196
E 6 14 206
E 6 15 195
E 6 16 193
E 6 17 201
E 6 18 197
E 6 19 191
E 6 20 206
E 6 21 193
E 6 22 201
E 6 23 188
E 6 24 202
E 6 25 186
E 6 26 197
E 6 27 205
E 6 28 200
E 6 29 190
E 6 30 200
E 6 31 192
E 6 32 204
E 6 33 204
E 6 34 203
E 6 35 208
E 6 36 201
E 6 37 195
E 6 38 199
E 6 39 191
E 6 40 202
E 6 41 204
E 6 42 209
E 6 43 195
E 6 44 207
E 6 45 194
E 6 46 204
E 6 47 207
E 6 48 189
E 6 49 196
E 6 50 197
E 6 51 197
E 6 52 202
E 6 53 203
E 6 54 216
E 6 55 197
E 6 56 195
E 6 57 201
E 6 58 199
E 6 59 194
E 6 60 198
E 6 61 195
E 6 62 195
E 6 63 203
E 6 64 203
E 6 65 211
E 6 66 198
E 6 67 201
E 6 68 205
E 6 69 194
E 6 70 197
E 6 71 184
E 6 72 199
E 6 73 197
E 6 74 199
E 6 75 201
E 6 76 202
E 6 77 201
E 6 78 193
E 6 79 192
E 6 80 199
E 7 8 303
E 7 9 192
E 7 10 200
E 7 11 199
E 7 12 187
E 7 13 201
E 7 14 203
E 7 15 202
E 7 16 205
E 7 17 199
E 7 18 203
E 7 19 209
E 7 20 205
E 7 21 197
E 7 22 202
E 7 23 199
E 7 24 193
E 7 25 200
E 7 26 206
E 7 27 194
E 7 28 195
E 7 29 202
E 7 30 197
E 7 31 198
E 7 32 196
E 7 33 199
E 7 34 207
E 7 35 193
E 7 36 199
E 7 37 206
E 7 38 201
E 7 39 209
E 7 40 203
E 7 41 203
E 7 42 195
E 7 43 201
E 7 44 200
E 7 45 199
E 7 46 188
E 7 47 198
E 7 48 200
E 7 49 199
E 7 50 204
E 7 51 201
E 7 52 190
E 7 53 199
E 7 54 193
E 7 55 199
E 7 56 200
E 7 57 199
E 7 58 192
E 7 59 203
E 7 60 191
E 7 61 208
E 7 62 199
E 7 63 200
E 7 64 205
E 7 65 209
E 7 66 213
E 7 67 197
E 7 68 194
E 7 69 199
E 7 70 198
E 7 71 192
E 7 72 198
E 7 73 198
E 7 74 199
E 7 75 195
E 7 76 193
E 7 77 204
E 7 78 197
E 7 79 206
E 7 80 202
E 8 9 197
E 8 10 200
E 8 11 204
E 8 12 197
E 8 13 201
E 8 14 207
E 8 15 192
E 8 16 194
E 8 17 201
E 8 18 194
E 8 19 206
E 8 20 199
E 8 21 199
E 8 22 201
E 8 23 203
E 8 24 190
E 8 25 199
E 8 26 194
E 8 27 190
E 8 28 198
E 8 29 203
E 8 30 206
E 8 31 204
E 8 32 193
E 8 33 210
E 8 34 199
E 8 35 202
E 8 36 191
E 8 37 200
E 8 38 199
E 8 39 203
E 8 40 206
E 8 41 198
E 8 42 199
E 8 43 196
E 8 44 203
E 8 45 202
E 8 46 199
E 8 47 198
E 8 48 201
E 8 49 203
E 8 50 198
E 8 51 196
E 8 52 196
E 8 53 192
E 8 54 209
E 8 55 197
E 8 56 209
E 8 57 202
E 8 58 199
E 8 59 200
E 8 60 203
E 8 61 192
E 8 62 198
E 8 63 192
E 8 64 205
E 8 65 204
E 8 66 202
E 8 67 209
E 8 68 201
E 8 69 194
E 8 70 194
E 8 71 203
E 8 72 200
E 8 73 192
E 8 74 200
E 8 75 195
E 8 76 204
E 8 77 194
E 8 78 195
E 8 79 198
E 8 80 199
E 9 10 97
E 9 11 95
E 9 12 96
E 9 13 93
E 9 14 104
E 9 15 107
E 9 16 97
E 9 17 105
E 9 18 93
E 9 19 111
E 9 20 107
E 9 21 103
E 9 22 101
E 9 23 95
E 9 24 101
E 9 25 102
E 9 26 101
E 9 27 92
E 9 28 93
E 9 29 102
E 9 30 92
E 9 31 100
E 9 32 101
E 9 33 98
E 9 34 96
E 9 35 107
E 9 36 93
E 9 37 98
E 9 38 101
E 9 39 95
E 9 40 93
E 9 41 99
E 9 42 100
E 9 43 102
E 9 44 94
E 9 45 107
E 9 46 97
E 9 47 89
E 9 48 105
E 9 49 110
E 9 50 100
E 9 51 104
E 9 52 101
E 9 53 102
E 9 54 96
E 9 55 101
E 9 56 95
E 9 57 102
E 9 58 100
E 9 59 92
E 9 60 98
E 9 61 99
E 9 62 96
E 9 63 99
E 9 64 90
E 9 65 100
E 9 66 101
E 9 67 99
E 9 68 92
E 9 69 99
E 9 70 97
E 9 71 102
E 9 72 94
E 9 73 104
E 9 74 99
E 9 75 97
E 9 76 111
E 9 77 103
E 9 78 100
E 9 79 96
E 9 80 97
E 10 11 90
E 10 12 104
E 10 13 100
E 10 14 96
E 10 15 105
E 10 16 99
E 10 17 106
E 10 18 91
E 10 19 100
E 10 20 98
E 10 21 104
E 10 22 103
E 10 23 101
E 10 24 86
E 10 25 97
E 10 26 99
E 10 27 96
E 10 28 102
E 10 29 103
E 10 30 104
E 10 31 94
E 10 32 96
E 10 33 95
E 10 34 98
E 10 35 91
E 10 36 103
E 10 37 92
E 10 38 112
E 10 39 102
E 10 40 102
E 10 41 93
E 10 42 98
E 10 43 106
E 10 44 109
E 10 45 107
E 10 46 94
E 10 47 100
E 10 48 108
E 10 49 97
E 10 50 103
E 10 51 95
E 10 52 96
E 10 53 96
E 10 54 105
E 10 55 100
E 10 56 97
E 10 57 100
E 10 58 102
E 10 59 102
E 10 60 97
E 10 61 99
E 10 62 96
E 10 63 100
E 10 64 108
E 10 65 99
E 10 66 100
E 10 67 93
E 10 68 98
E 10 69 96
E 10 70 99
E 10 71 92
E 10 72 105
E 10 73 102
E 10 74 103
E 10 75 96
E 10 76 93
E 10 77 89
E 10 78 104
E 10 79 106
E 10 80 102
E 11 12 93
E 11 13 102
E 11 14 110
E 11 15 108
E 11 16 106
E 11 17 103
E 11 18 97
E 11 19 90
E 11 20 90
E 11 21 96
E 11 22 102
E 11 23 99
E 11 24 94
E 11 25 105
E 11 26 99
E 11 27 98
E 11 28 98
E 11 29 98
E 11 30 108
E 11 31 95
E 11 32 98
E 11 33 99
E 11 34 97
E 11 35 99
E 11 36 100
E 11 37 94
E 11 38 112
E 11 39 103
E 11 40 102
E 11 41 100
E 11 42 107
E 11 43 95
E 11 44 109
E 11 45 101
E 11 46 97
E 11 47 92
E 11 48 105
E 11 49 99
E 11 50 98
E 11 51 102
E 11 52 99
E 11 53 103
E 11 54 91
E 11 55 104
E 11 56 95
E 11 57 96
E 11 58 94
E 11 59 94
E 11 60 103
E 11 61 98
E 11 62 92
E 11 63 98
E 11 64 97
E 11 65 105
E 11 66 98
E 11 67 93
E 11 68 97
E 11 69 107
E 11 70 89
E 11 71 108
E 11 72 95
E 11 73 100
E 11 74 102
E 11 75 104
E 11 76 107
E 11 77 101
E 11 78 95
E 11 79 101
E 11 80 112
E 12 13 91
E 12 14 100
E 12 15 98
E 12 16 103
E 12 17 102
E 12 18 110
E 12 19 106
E 12 20 94
E 12 21 95
E 12 22 107
E 12 23 95
E 12 24 99
E 12 25 99
E 12 26 96
E 12 27 102
E 12 28 93
E 12 29 92
E 12 30 97
E 12 31 97
E 12 32 105
E 12 33 86
E 12 34 101
E 12 35 98
E 12 36 97
E 12 37 105
E 12 38 102
E 12 39 101
E 12 40 92
E 12 41 92
E 12 42 95
E 12 43 104
E 12 44 94
E 12 45 97
E 12 46 93
E 12 47 107
E 12 48 98
E 12 49 89
E 12 50 95
E 12 51 102
E 12 52 107
E 12 53 104
E 12 54 96
E 12 55 89
E 12 56 92
E 12 57 97
E 12 58 103
E 12 59 96
E 12 60 92
E 12 61 94
E 12 62 95
E 12 63 94
E 12 64 98
E 12 65 91
E 12 66 102
E 12 67 95
E 12 68 100
E 12 69 104
E 12 70 101
E 12 71 108
E 12 72 102
E 12 73 102
E 12 74 106
E 12 75 109
E 12 76 98
E 12 77 94
E 12 78 97
E 12 79 105
E 12 80 101
E 13 14 105
E 13 15 101
E 13 16 110
E 13 17 100
E 13 18 101
E 13 19 96
E 13 20 105
E 13 21 97
E 13 22 103
E 13 23 99
E 13 24 99
E 13 25 107
E 13 26 93
E 13 27 102
E 13 28 91
E 13 29 111
E 13 30 103
E 13 31 93
E 13 32 104
E 13 33 96
E 13 34 101
E 13 35 90
E 13 36 102
E 13 37 103
E 13 38 92
E 13 39 96
E 13 40 92
E 13 41 101
E 13 42 100
E 13 43 98
E 13 44 104
E 13 45 91
E 13 46 107
E 13 47 98
E 13 48 99
E 13 49 105
E 13 50 97
E 13 51 95
E 13 52 100
E 13 53 92
E 13 54 94
E 13 55 101
E 13 56 99
E 13 57 107
E 13 58 104
E 13 59 97
E 13 60 102
E 13 61 115
E 13 62 95
E 13 63 101
E 13 64 104
E 13 65 101
E 13 66 108
E 13 67 96
E 13 68 101
E 13 69 99
E 13 70 106
E 13 71 105
E 13 72 98
E 13 73 102
E 13 74 95
E 13 75 106
E 13 76 98
E 13 77 99
E 13 78 97
E 13 79 99
E 13 80 95
E 14 15 92
E 14 16 97
E 14 17 95
E 14 18 95
E 14 19 93
E 14 20 101
E 14 21 98
E 14 22 101
E 14 23 98
E 14 24 107
E 14 25 101
E 14 26 95
E 14 27 98
E 14 28 97
E 14 29 91
E 14 30 102
E 14 31 99
E 14 32 91
E 14 33 97
E 14 34 93
E 14 35 101
E 14 36 101
E 14 37 92
E 14 38 99
E 14 39 94
E 14 40 96
E 14 41 89
E 14 42 93
E 14 43 102
E 14 44 92
E 14 45 94
E 14 46 101
E 14 47 103
E 14 48 99
E 14 49 107
E 14 50 105
E 14 51 100
E 14 52 101
E 14 53 100
E 14 54 103
E 14 55 97
E 14 56 101
E 14 57 101
E 14 58 106
E 14 59 103
E 14 60 101
E 14 61 110
E 14 62 101
E 14 63 97
E 14 64 101
E 14 65 102
E 14 66 102
E 14 67 106
E 14 68 100
E 14 69 104
E 14 70 99
E 14 71 98
E 14 72 94
E 14 73 105
E 14 74 109
E 14 75 103
E 14 76 98
E 14 77 110
E 14 78 93
E 14 79 96
E 14 80 99
E 15 16 106
E 15 17 96
E 15 18 97
E 15 19 104
E 15 20 99
E 15 21 94
E 15 22 100
E 15 23 102
E 15 24 105
E 15 25 107
E 15 26 101
E 15 27 95
E 15 28 97
E 15 29 107
E 15 30 105
E 15 31 96
E 15 32 100
E 15 33 101
E 15 34 104
E 15 35 107
E 15 36 97
E 15 37 99
E 15 38 104
E 15 39 100
E 15 40 93
E 15 41 97
E 15 42 95
E 15 43 96
E 15 44 90
E 15 45 97
E 15 46 104
E 15 47 95
E 15 48 106
E 15 49 102
E 15 50 91
E 15 51 104
E 15 52 99
E 15 53 103
E 15 54 102
E 15 55 104
E 15 56 94
E 15 57 105
E 15 58 95
E 15 59 94
E 15 60 103
E 15 61 103
E 15 62 99
E 15 63 103
E 15 64 94
E 15 65 96
E 15 66 95
E 15 67 97
E 15 68 96
E 15 69 99
E 15 70 96
E 15 71 108
E 15 72 94
E 15 73 97
E 15 74 100
E 15 75 93
E 15 76 101
E 15 77 103
E 15 78 97
E 15 79 95
E 15 80 95
E 16 17 111
E 16 18 105
E 16 19 103
E 16 20 100
E 16 21 100
E 16 22 95
E 16 23 97
E 16 24 107
E 16 25 98
E 16 26 106
E 16 27 102
E 16 28 97
E 16 29 95
E 16 30 99
E 16 31 92
E 16 32 102
E 16 33 97
E 16 34 102
E 16 35 98
E 16 36 95
E 16 37 107
E 16 38 96
E 16 39 97
E 16 40 102
E 16 41 97
E 16 42 106
E 16 43 90
E 16 44 98
E 16 45 94
E 16 46 102
E 16 47 110
E 16 48 94
E 16 49 101
E 16 50 100
E 16 51 98
E 16 52 106
E 16 53 101
E 16 54 99
E 16 55 94
E 16 56 105
E 16 57 98
E 16 58 96
E 16 59 98
E 16 60 111
E 16 61 108
E 16 62 102
E 16 63 98
E 16 64 102
E 16 65 94
E 16 66 101
E 16 67 100
E 16 68 101
E 16 69 97
E 16 70 104
E 16 71 100
E 16 72 101
E 16 73 96
E 16 74 105
E 16 75 99
E 16 76 99
E 16 77 100
E 16 78 108
E 16 79 106
E 16 80 97
E 17 18 96
E 17 19 98
E 17 20 95
E 17 21 103
E 17 22 105
E 17 23 98
E 17 24 104
E 17 25 92
E 17 26 91
E 17 27 99
E 17 28 101
E 17 29 100
E 17 30 88
E 17 31 100
E 17 32 100
E 17 33 109
E 17 34 97
E 17 35 92
E 17 36 104
E 17 37 97
E 17 38 98
E 17 39 97
E 17 40 100
E 17 41 102
E 17 42 98
E 17 43 109
E 17 44 90
E 17 45 100
E 17 46 95
E 17 47 103
E 17 48 90
E 17 49 105
E 17 50 100
E 17 51 102
E 17 52 103
E 17 53 102
E 17 54 89
E 17 55 106
E 17 56 90
E 17 57 102
E 17 58 98
E 17 59 90
E 17 60 104
E 17 61 106
E 17 62 95
E 17 63 99
E 17 64 104
E 17 65 106
E 17 66 99
E 17 67 105
E 17 68 95
E 17 69 102
E 17 70 97
E 17 71 103
E 17 72 101
E 17 73 95
E 17 74 95
E 17 75 102
E 17 76 100
E 17 77 100
E 17 78 107
E 17 79 89
E 17 80 99
E 18 19 98
E 18 20 96
E 18 21 106
E 18 22 105
E 18 23 96
E 18 24 98
E 18 25 98
E 18 26 103
E 18 27 99
E 18 28 97
E 18 29 94
E 18 30 103
E 18 31 98
E 18 32 99
E 18 33 95
E 18 34 101
E 18 35 112
E 18 36 96
E 18 37 100
E 18 38 102
E 18 39 96
E 18 40 97
E 18 41 101
E 18 42 100
E 18 43 103
E 18 44 95
E 18 45 91
E 18 46 94
E 18 47 107
E 18 48 90
E 18 49 102
E 18 50 103
E 18 51 100
E 18 52 101
E 18 53 94
E 18 54 93
E 18 55 106
E 18 56 101
E 18 57 103
E 18 58 92
E 18 59 99
E 18 60 94
E 18 61 94
E 18 62 108
E 18 63 88
E 18 64 91
E 18 65 97
E 18 66 95
E 18 67 105
E 18 68 98
E 18 69 98
E 18 70 98
E 18 71 96
E 18 72 97
E 18 73 101
E 18 74 94
E 18 75 97
E 18 76 101
E 18 77 99
E 18 78 97
E 18 79 108
E 18 80 99
E 19 20 98
E 19 21 105
E 19 22 102
E 19 23 105
E 19 24 100
E 19 25 99
E 19 26 103
E 19 27 101
E 19 28 104
E 19 29 102
E 19 30 111
E 19 31 98
E 19 32 92
E 19 33 104
E 19 34 95
E 19 35 104
E 19 36 93
E 19 37 99
E 19 38 107
E 19 39 88
E 19 40 106
E 19 41 101
E 19 42 95
E 19 43 100
E 19 44 94
E 19 45 98
E 19 46 107
E 19 47 92
E 19 48 103
E 19 49 97
E 19 50 97
E 19 51 100
E 19 52 96
E 19 53 99
E 19 54 95
E 19 55 99
E 19 56 95
E 19 57 105
E 19 58 103
E 19 59 96
E 19 60 100
E 19 61 104
E 19 62 99
E 19 63 93
E 19 64 110
E 19 65 104
E 19 66 88
E 19 67 95
E 19 68 99
E 19 69 103
E 19 70 100
E 19 71 99
E 19 72 105
E 19 73 94
E 19 74 105
E 19 75 99
E 19 76 93
E 19 77 97
E 19 78 102
E 19 79 102
E 19 80 97
E 20 21 105
E 20 22 102
E 20 23 100
E 20 24 104
E 20 25 98
E 20 26 106
E 20 27 106
E 20 28 97
E 20 29 94
E 20 30 93
E 20 31 90
E 20 32 103
E 20 33 105
E 20 34 104
E 20 35 98
E 20 36 103
E 20 37 100
E 20 38 101
E 20 39 95
E 20 40 101
E 20 41 96
E 20 42 101
E 20 43 91
E 20 44 106
E 20 45 99
E 20 46 98
E 20 47 98
E 20 48 102
E 20 49 92
E 20 50 103
E 20 51 91
E 20 52 96
E 20 53 92
E 20 54 100
E 20 55 107
E 20 56 98
E 20 57 98
E 20 58 100
E 20 59 93
E 20 60 107
E 20 61 98
E 20 62 101
E 20 63 106
E 20 64 97
E 20 65 101
E 20 66 105
E 20 67 99
E 20 68 100
E 20 69 103
E 20 70 104
E 20 71 103
E 20 72 102
E 20 73 92
E 20 74 96
E 20 75 101
E 20 76 92
E 20 77 101
E 20 78 99
E 20 79 97
E 20 80 100
E 21 22 101
E 21 23 103
E 21 24 105
E 21 25 95
E 21 26 102
E 21 27 100
E 21 28 98
E 21 29 107
E 21 30 97
E 21 31 104
E 21 32 98
E 21 33 104
E 21 34 99
E 21 35 104
E 21 36 100
E 21 37 97
E 21 38 92
E 21 39 106
E 21 40 103
E 21 41 106
E 21 42 100
E 21 43 102
E 21 44 95
E 21 45 94
E 21 46 100
E 21 47 101
E 21 48 102
E 21 49 86
E 21 50 98
E 21 51 102
E 21 52 95
E 21 53 100
E 21 54 105
E 21 55 102
E 21 56 99
E 21 57 99
E 21 58 100
E 21 59 100
E 21 60 108
E 21 61 98
E 21 62 94
E 21 63 104
E 21 64 109
E 21 65 105
E 21 66 102
E 21 67 97
E 21 68 100
E 21 69 93
E 21 70 101
E 21 71 95
E 21 72 102
E 21 73 95
E 21 74 106
E 21 75 106
E 21 76 102
E 21 77 92
E 21 78 100
E 21 79 97
E 21 80 96
E 22 23 104
E 22 24 111
E 22 25 100
E 22 26 99
E 22 27 97
E 22 28 99
E 22 29 96
E 22 30 95
E 22 31 96
E 22 32 106
E 22 33 96
E 22 34 98
E 22 35 98
E 22 36 99
E 22 37 101
E 22 38 99
E 22 39 95
E 22 40 97
E 22 41 99
E 22 42 94
E 22 43 102
E 22 44 101
E 22 45 94
E 22 46 102
E 22 47 102
E 22 48 92
E 22 49 96
E 22 50 96
E 22 51 90
E 22 52 99
E 22 53 96
E 22 54 102
E 22 55 101
E 22 56 97
E 22 57 97
E 22 58 104
E 22 59 102
E 22 60 100
E 22 61 96
E 22 62 114
E 22 63 101
E 22 64 108
E 22 65 95
E 22 66 105
E 22 67 103
E 22 68 96
E 22 69 97
E 22 70 102
E 22 71 95
E 22 72 100
E 22 73 102
E 22 74 99
E 22 75 99
E 22 76 98
E 22 77 93
E 22 78 97
E 22 79 90
E 22 80 102
E 23 24 102
E 23 25 98
E 23 26 93
E 23 27 100
E 23 28 100
E 23 29 108
E 23 30 99
E 23 31 93
E 23 32 96
E 23 33 97
E 23 34 101
E 23 35 94
E 23 36 97
E 23 37 97
E 23 38 103
E 23 39 91
E 23 40 99
E 23 41 105
E 23 42 95
E 23 43 96
E 23 44 107
E 23 45 101
E 23 46 96
E 23 47 99
E 23 48 98
E 23 49 108
E 23 50 101
E 23 51 92
E 23 52 102
E 23 53 100
E 23 54 103
E 23 55 100
E 23 56 98
E 23 57 99
E 23 58 95
E 23 59 98
E 23 60 96
E 23 61 101
E 23 62 96
E 23 63 90
E 23 64 98
E 23 65 99
E 23 66 100
E 23 67 93
E 23 68 93
E 23 69 97
E 23 70 97
E 23 71 94
E 23 72 91
E 23 73 102
E 23 74 94
E 23 75 100
E 23 76 105
E 23 77 98
E 23 78 99
E 23 79 95
E 23 80 109
E 24 25 100
E 24 26 89
E 24 27 101
E 24 28 104
E 24 29 106
E 24 30 96
E 24 31 99
E 24 32 102
E 24 33 94
E 24 34 95
E 24 35 103
E 24 36 101
E 24 37 99
E 24 38 102
E 24 39 98
E 24 40 101
E 24 41 93
E 24 42 98
E 24 43 106
E 24 44 97
E 24 45 89
E 24 46 100
E 24 47 100
E 24 48 108
E 24 49 93
E 24 50 104
E 24 51 97
E 24 52 99
E 24 53 98
E 24 54 107
E 24 55 101
E 24 56 102
E 24 57 94
E 24 58 102
E 24 59 96
E 24 60 101
E 24 61 103
E 24 62 102
E 24 63 92
E 24 64 95
E 24 65 101
E 24 66 106
E 24 67 98
E 24 68 104
E 24 69 99
E 24 70 102
E 24 71 97
E 24 72 101
E 24 73 98
E 24 74 101
E 24 75 105
E 24 76 92
E 24 77 94
E 24 78 95
E 24 79 105
E 24 80 105
E 25 26 97
E 25 27 112
E 25 28 103
E 25 29 99
E 25 30 96
E 25 31 102
E 25 32 108
E 25 33 99
E 25 34 94
E 25 35 101
E 25 36 92
E 25 37 102
E 25 38 98
E 25 39 100
E 25 40 94
E 25 41 91
E 25 42 91
E 25 43 103
E 25 44 112
E 25 45 96
E 25 46 101
E 25 47 99
E 25 48 103
E 25 49 99
E 25 50 99
E 25 51 104
E 25 52 100
E 25 53 99
E 25 54 94
E 25 55 109
E 25 56 106
E 25 57 96
E 25 58 112
E 25 59 111
E 25 60 98
E 25 61 100
E 25 62 101
E 25 63 95
E 25 64 95
E 25 65 93
E 25 66 102
E 25 67 99
E 25 68 98
E 25 69 99
E 25 70 107
E 25 71 97
E 25 72 92
E 25 73 96
E 25 74 92
E 25 75 87
E 25 76 95
E 25 77 90
E 25 78 100
E 25 79 104
E 25 80 92
E 26 27 99
E 26 28 96
E 26 29 95
E 26 30 98
E 26 31 98
E 26 32 102
E 26 33 100
E 26 34 105
E 26 35 94
E 26 36 99
E 26 37 98
E 26 38 93
E 26 39 105
E 26 40 93
E 26 41 92
E 26 42 100
E 26 43 96
E 26 44 98
E 26 45 107
E 26 46 99
E 26 47 111
E 26 48 106
E 26 49 102
E 26 50 101
E 26 51 96
E 26 52 97
E 26 53 105
E 26 54 94
E 26 55 89
E 26 56 100
E 26 57 102
E 26 58 96
E 26 59 84
E 26 60 103
E 26 61 104
E 26 62 102
E 26 63 106
E 26 64 102
E 26 65 111
E 26 66 97
E 26 67 98
E 26 68 94
E 26 69 90
E 26 70 104
E 26 71 101
E 26 72 102
E 26 73 104
E 26 74 106
E 26 75 105
E 26 76 96
E 26 77 92
E 26 78 104
E 26 79 108
E 26 80 94
E 27 28 93
E 27 29 97
E 27 30 96
E 27 31 94
E 27 32 102
E 27 33 112
E 27 34 102
E 27 35 95
E 27 36 105
E 27 37 91
E 27 38 95
E 27 39 98
E 27 40 112
E 27 41 97
E 27 42 101
E 27 43 106
E 27 44 110
E 27 45 97
E 27 46 98
E 27 47 102
E 27 48 101
E 27 49 107
E 27 50 91
E 27 51 97
E 27 52 103
E 27 53 100
E 27 54 93
E 27 55 100
E 27 56 94
E 27 57 100
E 27 58 105
E 27 59 101
E 27 60 96
E 27 61 100
E 27 62 99
E 27 63 96
E 27 64 88
E 27 65 99
E 27 66 106
E 27 67 101
E 27 68 95
E 27 69 100
E 27 70 95
E 27 71 100
E 27 72 99
E 27 73 98
E 27 74 98
E 27 75 98
E 27 76 90
E 27 77 102
E 27 78 99
E 27 79 101
E 27 80 105
E 28 29 107
E 28 30 107
E 28 31 99
E 28 32 98
E 28 33 105
E 28 34 102
E 28 35 105
E 28 36 103
E 28 37 96
E 28 38 95
E 28 39 92
E 28 40 106
E 28 41 103
E 28 42 91
E 28 43 95
E 28 44 99
E 28 45 107
E 28 46 94
E 28 47 96
E 28 48 105
E 28 49 104
E 28 50 99
E 28 51 103
E 28 52 98
E 28 53 99
E 28 54 97
E 28 55 109
E 28 56 97
E 28 57 97
E 28 58 100
E 28 59 100
E 28 60 101
E 28 61 91
E 28 62 104
E 28 63 100
E 28 64 102
E 28 65 106
E 28 66 99
E 28 67 105
E 28 68 108
E 28 69 99
E 28 70 92
E 28 71 100
E 28 72 109
E 28 73 100
E 28 74 100
E 28 75 94
E 28 76 106
E 28 77 100
E 28 78 107
E 28 79 101
E 28 80 93
E 29 30 98
E 29 31 95
E 29 32 95
E 29 33 93
E 29 34 96
E 29 35 98
E 29 36 98
E 29 37 100
E 29 38 111
E 29 39 105
E 29 40 96
E 29 41 99
E 29 42 91
E 29 43 107
E 29 44 102
E 29 45 97
E 29 46 100
E 29 47 100
E 29 48 93
E 29 49 106
E 29 50 96
E 29 51 97
E 29 52 103
E 29 53 90
E 29 54 106
E 29 55 96
E 29 56 103
E 29 57 101
E 29 58 101
E 29 59 100
E 29 60 99
E 29 61 99
E 29 62 101
E 29 63 98
E 29 64 98
E 29 65 100
E 29 66 101
E 29 67 100
E 29 68 96
E 29 69 100
E 29 70 103
E 29 71 107
E 29 72 107
E 29 73 100
E 29 74 98
E 29 75 97
E 29 76 103
E 29 77 105
E 29 78 88
E 29 79 102
E 29 80 91
E 30 31 99
E 30 32 102
E 30 33 101
E 30 34 104
E 30 35 105
E 30 36 106
E 30 37 97
E 30 38 98
E 30 39 105
E 30 40 92
E 30 41 103
E 30 42 89
E 30 43 96
E 30 44 96
E 30 45 102
E 30 46 96
E 30 47 99
E 30 48 99
E 30 49 98
E 30 50 95
E 30 51 98
E 30 52 99
E 30 53 99
E 30 54 106
E 30 55 96
E 30 56 100
E 30 57 95
E 30 58 105
E 30 59 103
E 30 60 97
E 30 61 101
E 30 62 106
E 30 63 101
E 30 64 99
E 30 65 104
E 30 66 103
E 30 67 105
E 30 68 106
E 30 69 87
E 30 70 104
E 30 71 94
E 30 72 96
E 30 73 97
E 30 74 93
E 30 75 99
E 30 76 91
E 30 77 95
E 30 78 101
E 30 79 96
E 30 80 96
E 31 32 110
E 31 33 103
E 31 34 106
E 31 35 100
E 31 36 103
E 31 37 105
E 31 38 96
E 31 39 105
E 31 40 99
E 31 41 96
E 31 42 91
E 31 43 108
E 31 44 102
E 31 45 99
E 31 46 98
E 31 47 93
E 31 48 90
E 31 49 104
E 31 50 101
E 31 51 92
E 31 52 104
E 31 53 109
E 31 54 93
E 31 55 100
E 31 56 100
E 31 57 99
E 31 58 99
E 31 59 101
E 31 60 103
E 31 61 99
E 31 62 99
E 31 63 110
E 31 64 99
E 31 65 107
E 31 66 101
E 31 67 97
E 31 68 110
E 31 69 95
E 31 70 101
E 31 71 102
E 31 72 100
E 31 73 96
E 31 74 106
E 31 75 107
E 31 76 102
E 31 77 105
E 31 78 94
E 31 79 111
E 31 80 99
E 32 33 89
E 32 34 102
E 32 35 99
E 32 36 101
E 32 37 99
E 32 38 95
E 32 39 94
E 32 40 109
E 32 41 98
E 32 42 92
E 32 43 93
E 32 44 96
E 32 45 101
E 32 46 100
E 32 47 104
E 32 48 98
E 32 49 105
E 32 50 106
E 32 51 100
E 32 52 98
E 32 53 87
E 32 54 104
E 32 55 93
E 32 56 111
E 32 57 96
E 32 58 100
E 32 59 92
E 32 60 89
E 32 61 101
E 32 62 97
E 32 63 91
E 32 64 99
E 32 65 94
E 32 66 89
E 32 67 101
E 32 68 108
E 32 69 102
E 32 70 105
E 32 71 93
E 32 72 103
E 32 73 101
E 32 74 102
E 32 75 99
E 32 76 90
E 32 77 103
E 32 78 102
E 32 79 95
E 32 80 101
E 33 34 100
E 33 35 100
E 33 36 104
E 33 37 96
E 33 38 104
E 33 39 98
E 33 40 97
E 33 41 101
E 33 42 101
E 33 43 103
E 33 44 100
E 33 45 106
E 33 46 109
E 33 47 92
E 33 48 102
E 33 49 99
E 33 50 93
E 33 51 96
E 33 52 98
E 33 53 102
E 33 54 102
E 33 55 105
E 33 56 100
E 33 57 95
E 33 58 100
E 33 59 96
E 33 60 98
E 33 61 95
E 33 62 98
E 33 63 94
E 33 64 98
E 33 65 95
E 33 66 102
E 33 67 103
E 33 68 108
E 33 69 100
E 33 70 104
E 33 71 93
E 33 72 95
E 33 73 107
E 33 74 94
E 33 75 96
E 33 76 98
E 33 77 92
E 33 78 105
E 33 79 102
E 33 80 105
E 34 35 110
E 34 36 97
E 34 37 88
E 34 38 83
E 34 39 98
E 34 40 94
E 34 41 108
E 34 42 108
E 34 43 106
E 34 44 105
E 34 45 98
E 34 46 93
E 34 47 99
E 34 48 108
E 34 49 99
E 34 50 100
E 34 51 103
E 34 52 93
E 34 53 98
E 34 54 91
E 34 55 107
E 34 56 103
E 34 57 99
E 34 58 99
E 34 59 109
E 34 60 97
E 34 61 92
E 34 62 97
E 34 63 96
E 34 64 101
E 34 65 99
E 34 66 91
E 34 67 94
E 34 68 105
E 34 69 100
E 34 70 104
E 34 71 105
E 34 72 94
E 34 73 106
E 34 74 99
E 34 75 97
E 34 76 106
E 34 77 108
E 34 78 99
E 34 79 101
E 34 80 99
E 35 36 102
E 35 37 95
E 35 38 92
E 35 39 99
E 35 40 104
E 35 41 108
E 35 42 105
E 35 43 95
E 35 44 104
E 35 45 98
E 35 46 92
E 35 47 102
E 35 48 98
E 35 49 98
E 35 50 105
E 35 51 100
E 35 52 97
E 35 53 101
E 35 54 101
E 35 55 102
E 35 56 96
E 35 57 102
E 35 58 93
E 35 59 98
E 35 60 109
E 35 61 99
E 35 62 99
E 35 63 98
E 35 64 103
E 35 65 106
E 35 66 101
E 35 67 102
E 35 68 99
E 35 69 97
E 35 70 95
E 35 71 100
E 35 72 111
E 35 73 98
E 35 74 101
E 35 75 94
E 35 76 97
E 35 77 99
E 35 78 97
E 35 79 97
E 35 80 99
E 36 37 96
E 36 38 100
E 36 39 98
E 36 40 110
E 36 41 97
E 36 42 104
E 36 43 105
E 36 44 96
E 36 45 99
E 36 46 94
E 36 47 97
E 36 48 100
E 36 49 104
E 36 50 102
E 36 51 96
E 36 52 102
E 36 53 106
E 36 54 90
E 36 55 104
E 36 56 110
E 36 57 94
E 36 58 99
E 36 59 101
E 36 60 97
E 36 61 91
E 36 62 89
E 36 63 101
E 36 64 99
E 36 65 101
E 36 66 102
E 36 67 104
E 36 68 96
E 36 69 98
E 36 70 100
E 36 71 102
E 36 72 101
E 36 73 105
E 36 74 109
E 36 75 91
E 36 76 99
E 36 77 102
E 36 78 102
E 36 79 97
E 36 80 102
E 37 38 96
E 37 39 90
E 37 40 101
E 37 41 107
E 37 42 96
E 37 43 103
E 37 44 98
E 37 45 103
E 37 46 102
E 37 47 103
E 37 48 109
E 37 49 97
E 37 50 102
E 37 51 101
E 37 52 106
E 37 53 109
E 37 54 96
E 37 55 95
E 37 56 107
E 37 57 98
E 37 58 100
E 37 59 103
E 37 60 94
E 37 61 99
E 37 62 98
E 37 63 96
E 37 64 94
E 37 65 102
E 37 66 104
E 37 67 98
E 37 68 109
E 37 69 101
E 37 70 99
E 37 71 103
E 37 72 96
E 37 73 95
E 37 74 96
E 37 75 94
E 37 76 104
E 37 77 106
E 37 78 104
E 37 79 96
E 37 80 102
E 38 39 101
E 38 40 102
E 38 41 89
E 38 42 105
E 38 43 101
E 38 44 99
E 38 45 94
E 38 46 97
E 38 47 101
E 38 48 110
E 38 49 102
E 38 50 116
E 38 51 107
E 38 52 91
E 38 53 107
E 38 54 97
E 38 55 100
E 38 56 94
E 38 57 94
E 38 58 98
E 38 59 96
E 38 60 98
E 38 61 107
E 38 62 95
E 38 63 97
E 38 64 94
E 38 65 107
E 38 66 100
E 38 67 91
E 38 68 102
E 38 69 95
E 38 70 96
E 38 71 105
E 38 72 99
E 38 73 98
E 38 74 108
E 38 75 97
E 38 76 94
E 38 77 93
E 38 78 101
E 38 79 105
E 38 80 95
E 39 40 93
E 39 41 104
E 39 42 103
E 39 43 99
E 39 44 102
E 39 45 106
E 39 46 92
E 39 47 99
E 39 48 100
E 39 49 97
E 39 50 94
E 39 51 100
E 39 52 95
E 39 53 101
E 39 54 100
E 39 55 100
E 39 56 99
E 39 57 106
E 39 58 111
E 39 59 94
E 39 60 93
E 39 61 95
E 39 62 96
E 39 63 100
E 39 64 96
E 39 65 103
E 39 66 101
E 39 67 87
E 39 68 96
E 39 69 97
E 39 70 100
E 39 71 104
E 39 72 96
E 39 73 97
E 39 74 96
E 39 75 99
E 39 76 97
E 39 77 99
E 39 78 101
E 39 79 106
E 39 80 105
E 40 41 103
E 40 42 96
E 40 43 100
E 40 44 100
E 40 45 101
E 40 46 97
E 40 47 104
E 40 48 100
E 40 49 95
E 40 50 94
E 40 51 108
E 40 52 102
E 40 53 105
E 40 54 100
E 40 55 98
E 40 56 100
E 40 57 96
E 40 58 95
E 40 59 99
E 40 60 104
E 40 61 105
E 40 62 96
E 40 63 89
E 40 64 99
E 40 65 109
E 40 66 97
E 40 67 104
E 40 68 93
E 40 69 100
E 40 70 108
E 40 71 99
E 40 72 99
E 40 73 100
E 40 74 106
E 40 75 98
E 40 76 105
E 40 77 100
E 40 78 96
E 40 79 97
E 40 80 92
E 41 42 98
E 41 43 101
E 41 44 106
E 41 45 100
E 41 46 94
E 41 47 102
E 41 48 103
E 41 49 103
E 41 50 101
E 41 51 97
E 41 52 103
E 41 53 89
E 41 54 107
E 41 55 99
E 41 56 105
E 41 57 104
E 41 58 96
E 41 59 98
E 41 60 92
E 41 61 101
E 41 62 105
E 41 63 100
E 41 64 100
E 41 65 99
E 41 66 96
E 41 67 98
E 41 68 94
E 41 69 107
E 41 70 103
E 41 71 103
E 41 72 104
E 41 73 96
E 41 74 105
E 41 75 98
E 41 76 96
E 41 77 104
E 41 78 96
E 41 79 107
E 41 80 92
E 42 43 103
E 42 44 101
E 42 45 103
E 42 46 101
E 42 47 99
E 42 48 103
E 42 49 98
E 42 50 97
E 42 51 96
E 42 52 105
E 42 53 96
E 42 54 98
E 42 55 105
E 42 56 104
E 42 57 96
E 42 58 99
E 42 59 101
E 42 60 90
E 42 61 104
E 42 62 100
E 42 63 99
E 42 64 104
E 42 65 92
E 42 66 101
E 42 67 95
E 42 68 106
E 42 69 95
E 42 70 102
E 42 71 101
E 42 72 103
E 42 73 97
E 42 74 89
E 42 75 107
E 42 76 107
E 42 77 92
E 42 78 100
E 42 79 95
E 42 80 99
E 43 44 98
E 43 45 96
E 43 46 94
E 43 47 106
E 43 48 110
E 43 49 96
E 43 50 99
E 43 51 92
E 43 52 101
E 43 53 107
E 43 54 96
E 43 55 96
E 43 56 98
E 43 57 102
E 43 58 92
E 43 59 88
E 43 60 107
E 43 61 92
E 43 62 108
E 43 63 103
E 43 64 92
E 43 65 95
E 43 66 98
E 43 67 102
E 43 68 98
E 43 69 90
E 43 70 108
E 43 71 103
E 43 72 99
E 43 73 97
E 43 74 102
E 43 75 96
E 43 76 102
E 43 77 105
E 43 78 107
E 43 79 101
E 43 80 94
E 44 45 92
E 44 46 99
E 44 47 103
E 44 48 101
E 44 49 97
E 44 50 99
E 44 51 102
E 44 52 100
E 44 53 97
E 44 54 98
E 44 55 94
E 44 56 110
E 44 57 97
E 44 58 109
E 44 59 92
E 44 60 108
E 44 61 97
E 44 62 96
E 44 63 107
E 44 64 99
E 44 65 104
E 44 66 101
E 44 67 105
E 44 68 104
E 44 69 98
E 44 70 94
E 44 71 107
E 44 72 105
E 44 73 102
E 44 74 98
E 44 75 91
E 44 76 98
E 44 77 101
E 44 78 103
E 44 79 100
E 44 80 98
E 45 46 105
E 45 47 101
E 45 48 100
E 45 49 89
E 45 50 94
E 45 51 93
E 45 52 96
E 45 53 96
E 45 54 101
E 45 55 98
E 45 56 85
E 45 57 104
E 45 58 103
E 45 59 97
E 45 60 103
E 45 61 102
E 45 62 96
E 45 63 100
E 45 64 95
E 45 65 108
E 45 66 100
E 45 67 98
E 45 68 106
E 45 69 96
E 45 70 107
E 45 71 96
E 45 72 109
E 45 73 102
E 45 74 97
E 45 75 96
E 45 76 105
E 45 77 107
E 45 78 101
E 45 79 110
E 45 80 96
E 46 47 103
E 46 48 96
E 46 49 108
E 46 50 96
E 46 51 100
E 46 52 105
E 46 53 94
E 46 54 93
E 46 55 92
E 46 56 97
E 46 57 95
E 46 58 100
E 46 59 95
E 46 60 102
E 46 61 94
E 46 62 99
E 46 63 108
E 46 64 101
E 46 65 93
E 46 66 95
E 46 67 109
E 46 68 99
E 46 69 100
E 46 70 104
E 46 71 109
E 46 72 99
E 46 73 92
E 46 74 103
E 46 75 94
E 46 76 93
E 46 77 97
E 46 78 106
E 46 79 107
E 46 80 93
E 47 48 97
E 47 49 93
E 47 50 107
E 47 51 100
E 47 52 98
E 47 53 99
E 47 54 96
E 47 55 101
E 47 56 101
E 47 57 100
E 47 58 95
E 47 59 91
E 47 60 109
E 47 61 98
E 47 62 97
E 47 63 89
E 47 64 96
E 47 65 109
E 47 66 95
E 47 67 103
E 47 68 114
E 47 69 91
E 47 70 99
E 47 71 104
E 47 72 93
E 47 73 98
E 47 74 102
E 47 75 101
E 47 76 106
E 47 77 99
E 47 78 99
E 47 79 100
E 47 80 100
E 48 49 96
E 48 50 94
E 48 51 105
E 48 52 107
E 48 53 103
E 48 54 96
E 48 55 101
E 48 56 93
E 48 57 97
E 48 58 108
E 48 59 105
E 48 60 95
E 48 61 100
E 48 62 95
E 48 63 98
E 48 64 101
E 48 65 96
E 48 66 96
E 48 67 100
E 48 68 99
E 48 69 108
E 48 70 101
E 48 71 107
E 48 72 97
E 48 73 101
E 48 74 106
E 48 75 102
E 48 76 100
E 48 77 103
E 48 78 106
E 48 79 99
E 48 80 96
E 49 50 104
E 49 51 100
E 49 52 104
E 49 53 106
E 49 54 109
E 49 55 97
E 49 56 104
E 49 57 93
E 49 58 102
E 49 59 100
E 49 60 101
E 49 61 102
E 49 62 102
E 49 63 102
E 49 64 103
E 49 65 102
E 49 66 99
E 49 67 98
E 49 68 106
E 49 69 94
E 49 70 105
E 49 71 97
E 49 72 102
E 49 73 102
E 49 74 100
E 49 75 105
E 49 76 105
E 49 77 104
E 49 78 104
E 49 79 98
E 49 80 101
E 50 51 103
E 50 52 96
E 50 53 104
E 50 54 104
E 50 55 101
E 50 56 99
E 50 57 106
E 50 58 107
E 50 59 108
E 50 60 98
E 50 61 97
E 50 62 95
E 50 63 99
E 50 64 102
E 50 65 103
E 50 66 94
E 50 67 100
E 50 68 105
E 50 69 102
E 50 70 100
E 50 71 99
E 50 72 93
E 50 73 100
E 50 74 96
E 50 75 106
E 50 76 100
E 50 77 98
E 50 78 105
E 50 79 110
E 50 80 106
E 51 52 94
E 51 53 92
E 51 54 93
E 51 55 108
E 51 56 96
E 51 57 98
E 51 58 89
E 51 59 102
E 51 60 96
E 51 61 96
E 51 62 104
E 51 63 100
E 51 64 98
E 51 65 90
E 51 66 98
E 51 67 96
E 51 68 100
E 51 69 102
E 51 70 102
E 51 71 105
E 51 72 97
E 51 73 98
E 51 74 107
E 51 75 94
E 51 76 104
E 51 77 102
E 51 78 101
E 51 79 102
E 51 80 99
E 52 53 107
E 52 54 102
E 52 55 100
E 52 56 100
E 52 57 100
E 52 58 99
E 52 59 98
E 52 60 96
E 52 61 100
E 52 62 109
E 52 63 96
E 52 64 95
E 52 65 96
E 52 66 100
E 52 67 94
E 52 68 103
E 52 69 104
E 52 70 97
E 52 71 100
E 52 72 93
E 52 73 104
E 52 74 98
E 52 75 104
E 52 76 101
E 52 77 98
E 52 78 100
E 52 79 91
E 52 80 97
E 53 54 97
E 53 55 105
E 53 56 103
E 53 57 89
E 53 58 98
E 53 59 106
E 53 60 98
E 53 61 104
E 53 62 101
E 53 63 103
E 53 64 99
E 53 65 105
E 53 66 90
E 53 67 105
E 53 68 114
E 53 69 90
E 53 70 93
E 53 71 104
E 53 72 107
E 53 73 100
E 53 74 92
E 53 75 89
E 53 76 103
E 53 77 94
E 53 78 101
E 53 79 92
E 53 80 98
E 54 55 104
E 54 56 105
E 54 57 96
E 54 58 97
E 54 59 95
E 54 60 96
E 54 61 99
E 54 62 91
E 54 63 103
E 54 64 99
E 54 65 97
E 54 66 91
E 54 67 98
E 54 68 106
E 54 69 107
E 54 70 106
E 54 71 91
E 54 72 92
E 54 73 110
E 54 74 98
E 54 75 91
E 54 76 97
E 54 77 100
E 54 78 98
E 54 79 97
E 54 80 96
E 55 56 94
E 55 57 104
E 55 58 97
E 55 59 103
E 55 60 103
E 55 61 89
E 55 62 98
E 55 63 103
E 55 64 102
E 55 65 112
E 55 66 98
E 55 67 96
E 55 68 106
E 55 69 103
E 55 70 101
E 55 71 106
E 55 72 100
E 55 73 103
E 55 74 110
E 55 75 102
E 55 76 89
E 55 77 95
E 55 78 104
E 55 79 103
E 55 80 105
E 56 57 106
E 56 58 104
E 56 59 107
E 56 60 110
E 56 61 110
E 56 62 98
E 56 63 102
E 56 64 97
E 56 65 99
E 56 66 102
E 56 67 98
E 56 68 103
E 56 69 95
E 56 70 101
E 56 71 87
E 56 72 102
E 56 73 96
E 56 74 101
E 56 75 95
E 56 76 89
E 56 77 100
E 56 78 95
E 56 79 102
E 56 80 105
E 57 58 94
E 57 59 104
E 57 60 101
E 57 61 103
E 57 62 98
E 57 63 95
E 57 64 99
E 57 65 102
E 57 66 93
E 57 67 90
E 57 68 103
E 57 69 103
E 57 70 98
E 57 71 96
E 57 72 94
E 57 73 105
E 57 74 101
E 57 75 102
E 57 76 96
E 57 77 105
E 57 78 96
E 57 79 104
E 57 80 104
E 58 59 99
E 58 60 103
E 58 61 105
E 58 62 101
E 58 63 105
E 58 64 105
E 58 65 111
E 58 66 95
E 58 67 95
E 58 68 104
E 58 69 99
E 58 70 97
E 58 71 97
E 58 72 105
E 58 73 97
E 58 74 100
E 58 75 94
E 58 76 92
E 58 77 107
E 58 78 107
E 58 79 105
E 58 80 106
E 59 60 107
E 59 61 107
E 59 62 92
E 59 63 93
E 59 64 99
E 59 65 100
E 59 66 104
E 59 67 96
E 59 68 101
E 59 69 104
E 59 70 107
E 59 71 94
E 59 72 105
E 59 73 92
E 59 74 96
E 59 75 96
E 59 76 103
E 59 77 107
E 59 78 104
E 59 79 100
E 59 80 95
E 60 61 104
E 60 62 99
E 60 63 97
E 60 64 103
E 60 65 103
E 60 66 103
E 60 67 99
E 60 68 103
E 60 69 106
E 60 70 104
E 60 71 95
E 60 72 94
E 60 73 103
E 60 74 99
E 60 75 90
E 60 76 101
E 60 77 92
E 60 78 105
E 60 79 100
E 60 80 106
E 61 62 88
E 61 63 106
E 61 64 98
E 61 65 98
E 61 66 95
E 61 67 91
E 61 68 103
E 61 69 93
E 61 70 98
E 61 71 98
E 61 72 100
E 61 73 108
E 61 74 97
E 61 75 107
E 61 76 91
E 61 77 110
E 61 78 98
E 61 79 107
E 61 80 101
E 62 63 105
E 62 64 97
E 62 65 108
E 62 66 97
E 62 67 100
E 62 68 103
E 62 69 96
E 62 70 95
E 62 71 93
E 62 72 101
E 62 73 100
E 62 74 89
E 62 75 105
E 62 76 104
E 62 77 102
E 62 78 95
E 62 79 98
E 62 80 95
E 63 64 94
E 63 65 102
E 63 66 95
E 63 67 102
E 63 68 93
E 63 69 104
E 63 70 94
E 63 71 103
E 63 72 95
E 63 73 98
E 63 74 101
E 63 75 100
E 63 76 101
E 63 77 105
E 63 78 102
E 63 79 99
E 63 80 102
E 64 65 100
E 64 66 90
E 64 67 102
E 64 68 100
E 64 69 99
E 64 70 97
E 64 71 96
E 64 72 97
E 64 73 99
E 64 74 87
E 64 75 98
E 64 76 98
E 64 77 98
E 64 78 103
E 64 79 95
E 64 80 109
E 65 66 87
E 65 67 101
E 65 68 104
E 65 69 96
E 65 70 102
E 65 71 103
E 65 72 96
E 65 73 104
E 65 74 99
E 65 75 97
E 65 76 100
E 65 77 98
E 65 78 96
E 65 79 109
E 65 80 94
E 66 67 97
E 66 68 96
E 66 69 97
E 66 70 95
E 66 71 89
E 66 72 105
E 66 73 102
E 66 74 106
E 66 75 99
E 66 76 95
E 66 77 96
E 66 78 103
E 66 79 102
E 66 80 103
E 67 68 105
E 67 69 96
E 67 70 95
E 67 71 103
E 67 72 96
E 67 73 103
E 67 74 104
E 67 75 87
E 67 76 107
E 67 77 97
E 67 78 105
E 67 79 97
E 67 80 96
E 68 69 103
E 68 70 99
E 68 71 97
E 68 72 101
E 68 73 104
E 68 74 97
E 68 75 94
E 68 76 94
E 68 77 98
E 68 78 102
E 68 79 99
E 68 80 110
E 69 70 93
E 69 71 100
E 69 72 93
E 69 73 95
E 69 74 98
E 69 75 106
E 69 76 104
E 69 77 93
E 69 78 104
E 69 79 100
E 69 80 94
E 70 71 105
E 70 72 102
E 70 73 99
E 70 74 103
E 70 75 98
E 70 76 102
E 70 77 107
E 70 78 98
E 70 79 94
E 70 80 106
E 71 72 99
E 71 73 102
E 71 74 95
E 71 75 105
E 71 76 103
E 71 77 100
E 71 78 96
E 71 79 90
E 71 80 98
E 72 73 97
E 72 74 97
E 72 75 85
E 72 76 108
E 72 77 103
E 72 78 93
E 72 79 97
E 72 80 93
E 73 74 96
E 73 75 98
E 73 76 97
E 73 77 97
E 73 78 108
E 73 79 101
E 73 80 96
E 74 75 103
E 74 76 99
E 74 77 96
E 74 78 95
E 74 79 95
E 74 80 99
E 75 76 104
E 75 77 98
E 75 78 93
E 75 79 92
E 75 80 109
E 76 77 99
E 76 78 99
E 76 79 96
E 76 80 99
E 77 78 95
E 77 79 115
E 77 80 104
E 78 79 97
E 78 80 99
E 79 80 90
END

SECTION Terminals
Terminals 8
T 1
T 2
T 3
T 4
T 5
T 6
T 7
T 8
END

EOF
